size = 15;
tiles = 10;
expressions = [
    "( ([2 3 4 5 6 7 8 9 10 11]* 1{1} [2 3 4 5 6 7 8 9 10 11]{14} [2 3 4 5 6 7 8 9 10 11] 1{4} [2 3 4 5 6 7 8 9 10 11]{11} [2 3 4 5 6 7 8 9 10 11] 1{5} [2 3 4 5 6 7 8 9 10 11]{10} [2 3 4 5 6 7 8 9 10 11] 1{4}  [2 3 4 5 6 7 8 9 10 11]*) | ([2 3 4 5 6 7 8 9 10 11]* 1{4} [2 3 4 5 6 7 8 9 10 11]{11} [2 3 4 5 6 7 8 9 10 11] 1{3} [2 3 4 5 6 7 8 9 10 11]{12} [2 3 4 5 6 7 8 9 10 11] 1{3} [2 3 4 5 6 7 8 9 10 11]{12} [2 3 4 5 6 7 8 9 10 11] 1{3} [2 3 4 5 6 7 8 9 10 11]{12} [2 3 4 5 6 7 8 9 10 11] [2 3 4 5 6 7 8 9 10 11]{1} 1{1}  [2 3 4 5 6 7 8 9 10 11]*) | ([2 3 4 5 6 7 8 9 10 11]* 1{4} [2 3 4 5 6 7 8 9 10 11] [2 3 4 5 6 7 8 9 10 11]{10} 1{5} [2 3 4 5 6 7 8 9 10 11] [2 3 4 5 6 7 8 9 10 11]{11} 1{4} [2 3 4 5 6 7 8 9 10 11] [2 3 4 5 6 7 8 9 10 11]{14} 1{1}  [2 3 4 5 6 7 8 9 10 11]*) | ([2 3 4 5 6 7 8 9 10 11]* 1{1} [2 3 4 5 6 7 8 9 10 11]{1} [2 3 4 5 6 7 8 9 10 11] [2 3 4 5 6 7 8 9 10 11]{12} 1{3} [2 3 4 5 6 7 8 9 10 11] [2 3 4 5 6 7 8 9 10 11]{12} 1{3} [2 3 4 5 6 7 8 9 10 11] [2 3 4 5 6 7 8 9 10 11]{12} 1{3} [2 3 4 5 6 7 8 9 10 11] [2 3 4 5 6 7 8 9 10 11]{11} 1{4}  [2 3 4 5 6 7 8 9 10 11]*) | ([2 3 4 5 6 7 8 9 10 11]* 1{1} [2 3 4 5 6 7 8 9 10 11] [2 3 4 5 6 7 8 9 10 11]{11} 1{4} [2 3 4 5 6 7 8 9 10 11] [2 3 4 5 6 7 8 9 10 11]{10} 1{5} [2 3 4 5 6 7 8 9 10 11] [2 3 4 5 6 7 8 9 10 11]{11} 1{4}  [2 3 4 5 6 7 8 9 10 11]*) | ([2 3 4 5 6 7 8 9 10 11]* 1{4} [2 3 4 5 6 7 8 9 10 11] [2 3 4 5 6 7 8 9 10 11]{12} 1{3} [2 3 4 5 6 7 8 9 10 11] [2 3 4 5 6 7 8 9 10 11]{12} 1{3} [2 3 4 5 6 7 8 9 10 11] [2 3 4 5 6 7 8 9 10 11]{12} 1{3} [2 3 4 5 6 7 8 9 10 11] [2 3 4 5 6 7 8 9 10 11]{13} 1{1}  [2 3 4 5 6 7 8 9 10 11]*) | ([2 3 4 5 6 7 8 9 10 11]* 1{4} [2 3 4 5 6 7 8 9 10 11]{11} [2 3 4 5 6 7 8 9 10 11] 1{5} [2 3 4 5 6 7 8 9 10 11]{10} [2 3 4 5 6 7 8 9 10 11] 1{4} [2 3 4 5 6 7 8 9 10 11]{11} [2 3 4 5 6 7 8 9 10 11] 1{1}  [2 3 4 5 6 7 8 9 10 11]*) | ([2 3 4 5 6 7 8 9 10 11]* 1{1} [2 3 4 5 6 7 8 9 10 11]{13} [2 3 4 5 6 7 8 9 10 11] 1{3} [2 3 4 5 6 7 8 9 10 11]{12} [2 3 4 5 6 7 8 9 10 11] 1{3} [2 3 4 5 6 7 8 9 10 11]{12} [2 3 4 5 6 7 8 9 10 11] 1{3} [2 3 4 5 6 7 8 9 10 11]{12} [2 3 4 5 6 7 8 9 10 11] 1{4}  [2 3 4 5 6 7 8 9 10 11]*) )",
    "( ([1 3 4 5 6 7 8 9 10 11]* 2{3} [1 3 4 5 6 7 8 9 10 11]{12} [1 3 4 5 6 7 8 9 10 11] 2{3} [1 3 4 5 6 7 8 9 10 11]{12} [1 3 4 5 6 7 8 9 10 11] 2{4} [1 3 4 5 6 7 8 9 10 11]{11} [1 3 4 5 6 7 8 9 10 11] [1 3 4 5 6 7 8 9 10 11]{1} 2{4}  [1 3 4 5 6 7 8 9 10 11]*) | ([1 3 4 5 6 7 8 9 10 11]* 2{3} [1 3 4 5 6 7 8 9 10 11]{8} [1 3 4 5 6 7 8 9 10 11] [1 3 4 5 6 7 8 9 10 11]{3} 2{4} [1 3 4 5 6 7 8 9 10 11]{8} [1 3 4 5 6 7 8 9 10 11] [1 3 4 5 6 7 8 9 10 11]{3} 2{4} [1 3 4 5 6 7 8 9 10 11]{8} [1 3 4 5 6 7 8 9 10 11] [1 3 4 5 6 7 8 9 10 11]{3} 2{2} [1 3 4 5 6 7 8 9 10 11]{10} [1 3 4 5 6 7 8 9 10 11] [1 3 4 5 6 7 8 9 10 11]{3} 2{1}  [1 3 4 5 6 7 8 9 10 11]*) | ([1 3 4 5 6 7 8 9 10 11]* 2{4} [1 3 4 5 6 7 8 9 10 11]{1} [1 3 4 5 6 7 8 9 10 11] [1 3 4 5 6 7 8 9 10 11]{11} 2{4} [1 3 4 5 6 7 8 9 10 11] [1 3 4 5 6 7 8 9 10 11]{12} 2{3} [1 3 4 5 6 7 8 9 10 11] [1 3 4 5 6 7 8 9 10 11]{12} 2{3}  [1 3 4 5 6 7 8 9 10 11]*) | ([1 3 4 5 6 7 8 9 10 11]* 2{1} [1 3 4 5 6 7 8 9 10 11]{3} [1 3 4 5 6 7 8 9 10 11] [1 3 4 5 6 7 8 9 10 11]{10} 2{2} [1 3 4 5 6 7 8 9 10 11]{3} [1 3 4 5 6 7 8 9 10 11] [1 3 4 5 6 7 8 9 10 11]{8} 2{4} [1 3 4 5 6 7 8 9 10 11]{3} [1 3 4 5 6 7 8 9 10 11] [1 3 4 5 6 7 8 9 10 11]{8} 2{4} [1 3 4 5 6 7 8 9 10 11]{3} [1 3 4 5 6 7 8 9 10 11] [1 3 4 5 6 7 8 9 10 11]{8} 2{3}  [1 3 4 5 6 7 8 9 10 11]*) | ([1 3 4 5 6 7 8 9 10 11]* 2{3} [1 3 4 5 6 7 8 9 10 11] [1 3 4 5 6 7 8 9 10 11]{12} 2{3} [1 3 4 5 6 7 8 9 10 11] [1 3 4 5 6 7 8 9 10 11]{11} 2{4} [1 3 4 5 6 7 8 9 10 11] [1 3 4 5 6 7 8 9 10 11]{10} 2{4}  [1 3 4 5 6 7 8 9 10 11]*) | ([1 3 4 5 6 7 8 9 10 11]* 2{3} [1 3 4 5 6 7 8 9 10 11]{4} [1 3 4 5 6 7 8 9 10 11] [1 3 4 5 6 7 8 9 10 11]{8} 2{4} [1 3 4 5 6 7 8 9 10 11]{3} [1 3 4 5 6 7 8 9 10 11] [1 3 4 5 6 7 8 9 10 11]{8} 2{4} [1 3 4 5 6 7 8 9 10 11]{3} [1 3 4 5 6 7 8 9 10 11] [1 3 4 5 6 7 8 9 10 11]{10} 2{2} [1 3 4 5 6 7 8 9 10 11]{3} [1 3 4 5 6 7 8 9 10 11] [1 3 4 5 6 7 8 9 10 11]{11} 2{1}  [1 3 4 5 6 7 8 9 10 11]*) | ([1 3 4 5 6 7 8 9 10 11]* 2{4} [1 3 4 5 6 7 8 9 10 11]{10} [1 3 4 5 6 7 8 9 10 11] 2{4} [1 3 4 5 6 7 8 9 10 11]{11} [1 3 4 5 6 7 8 9 10 11] 2{3} [1 3 4 5 6 7 8 9 10 11]{12} [1 3 4 5 6 7 8 9 10 11] 2{3}  [1 3 4 5 6 7 8 9 10 11]*) | ([1 3 4 5 6 7 8 9 10 11]* 2{1} [1 3 4 5 6 7 8 9 10 11]{11} [1 3 4 5 6 7 8 9 10 11] [1 3 4 5 6 7 8 9 10 11]{3} 2{2} [1 3 4 5 6 7 8 9 10 11]{10} [1 3 4 5 6 7 8 9 10 11] [1 3 4 5 6 7 8 9 10 11]{3} 2{4} [1 3 4 5 6 7 8 9 10 11]{8} [1 3 4 5 6 7 8 9 10 11] [1 3 4 5 6 7 8 9 10 11]{3} 2{4} [1 3 4 5 6 7 8 9 10 11]{8} [1 3 4 5 6 7 8 9 10 11] [1 3 4 5 6 7 8 9 10 11]{4} 2{3}  [1 3 4 5 6 7 8 9 10 11]*) )",
    "( ([1 2 4 5 6 7 8 9 10 11]* 3{2} [1 2 4 5 6 7 8 9 10 11]{8} [1 2 4 5 6 7 8 9 10 11] [1 2 4 5 6 7 8 9 10 11]{4} 3{3} [1 2 4 5 6 7 8 9 10 11]{8} [1 2 4 5 6 7 8 9 10 11] [1 2 4 5 6 7 8 9 10 11]{3} 3{5} [1 2 4 5 6 7 8 9 10 11]{7} [1 2 4 5 6 7 8 9 10 11] 3{8} [1 2 4 5 6 7 8 9 10 11]{7} [1 2 4 5 6 7 8 9 10 11] 3{10} [1 2 4 5 6 7 8 9 10 11]{5} [1 2 4 5 6 7 8 9 10 11] 3{12} [1 2 4 5 6 7 8 9 10 11]{3} [1 2 4 5 6 7 8 9 10 11] 3{12} [1 2 4 5 6 7 8 9 10 11]{3} [1 2 4 5 6 7 8 9 10 11] 3{11} [1 2 4 5 6 7 8 9 10 11]{4} [1 2 4 5 6 7 8 9 10 11] [1 2 4 5 6 7 8 9 10 11]{3} 3{3} [1 2 4 5 6 7 8 9 10 11]{1} 3{4} [1 2 4 5 6 7 8 9 10 11]{4} [1 2 4 5 6 7 8 9 10 11] [1 2 4 5 6 7 8 9 10 11]{3} 3{2} [1 2 4 5 6 7 8 9 10 11]{3} 3{3} [1 2 4 5 6 7 8 9 10 11]{4} [1 2 4 5 6 7 8 9 10 11] [1 2 4 5 6 7 8 9 10 11]{10} 3{1}  [1 2 4 5 6 7 8 9 10 11]*) | ([1 2 4 5 6 7 8 9 10 11]* 3{5} [1 2 4 5 6 7 8 9 10 11]{3} [1 2 4 5 6 7 8 9 10 11] [1 2 4 5 6 7 8 9 10 11]{7} 3{5} [1 2 4 5 6 7 8 9 10 11]{3} [1 2 4 5 6 7 8 9 10 11] [1 2 4 5 6 7 8 9 10 11]{7} 3{5} [1 2 4 5 6 7 8 9 10 11]{3} [1 2 4 5 6 7 8 9 10 11] [1 2 4 5 6 7 8 9 10 11]{5} 3{8} [1 2 4 5 6 7 8 9 10 11]{2} [1 2 4 5 6 7 8 9 10 11] [1 2 4 5 6 7 8 9 10 11]{5} 3{9} [1 2 4 5 6 7 8 9 10 11]{1} [1 2 4 5 6 7 8 9 10 11] [1 2 4 5 6 7 8 9 10 11]{6} 3{9} [1 2 4 5 6 7 8 9 10 11] [1 2 4 5 6 7 8 9 10 11]{7} 3{8} [1 2 4 5 6 7 8 9 10 11] [1 2 4 5 6 7 8 9 10 11]{6} 3{7} [1 2 4 5 6 7 8 9 10 11]{2} [1 2 4 5 6 7 8 9 10 11] [1 2 4 5 6 7 8 9 10 11]{5} 3{6} [1 2 4 5 6 7 8 9 10 11]{4} [1 2 4 5 6 7 8 9 10 11] [1 2 4 5 6 7 8 9 10 11]{5} 3{6} [1 2 4 5 6 7 8 9 10 11]{4} [1 2 4 5 6 7 8 9 10 11] [1 2 4 5 6 7 8 9 10 11]{4} 3{6} [1 2 4 5 6 7 8 9 10 11]{5} [1 2 4 5 6 7 8 9 10 11] [1 2 4 5 6 7 8 9 10 11]{8} 3{2}  [1 2 4 5 6 7 8 9 10 11]*) | ([1 2 4 5 6 7 8 9 10 11]* 3{1} [1 2 4 5 6 7 8 9 10 11]{10} [1 2 4 5 6 7 8 9 10 11] [1 2 4 5 6 7 8 9 10 11]{4} 3{3} [1 2 4 5 6 7 8 9 10 11]{3} 3{2} [1 2 4 5 6 7 8 9 10 11]{3} [1 2 4 5 6 7 8 9 10 11] [1 2 4 5 6 7 8 9 10 11]{4} 3{4} [1 2 4 5 6 7 8 9 10 11]{1} 3{3} [1 2 4 5 6 7 8 9 10 11]{3} [1 2 4 5 6 7 8 9 10 11] [1 2 4 5 6 7 8 9 10 11]{4} 3{11} [1 2 4 5 6 7 8 9 10 11] [1 2 4 5 6 7 8 9 10 11]{3} 3{12} [1 2 4 5 6 7 8 9 10 11] [1 2 4 5 6 7 8 9 10 11]{3} 3{12} [1 2 4 5 6 7 8 9 10 11] [1 2 4 5 6 7 8 9 10 11]{5} 3{10} [1 2 4 5 6 7 8 9 10 11] [1 2 4 5 6 7 8 9 10 11]{7} 3{8} [1 2 4 5 6 7 8 9 10 11] [1 2 4 5 6 7 8 9 10 11]{7} 3{5} [1 2 4 5 6 7 8 9 10 11]{3} [1 2 4 5 6 7 8 9 10 11] [1 2 4 5 6 7 8 9 10 11]{8} 3{3} [1 2 4 5 6 7 8 9 10 11]{4} [1 2 4 5 6 7 8 9 10 11] [1 2 4 5 6 7 8 9 10 11]{8} 3{2}  [1 2 4 5 6 7 8 9 10 11]*) | ([1 2 4 5 6 7 8 9 10 11]* 3{2} [1 2 4 5 6 7 8 9 10 11]{8} [1 2 4 5 6 7 8 9 10 11] [1 2 4 5 6 7 8 9 10 11]{5} 3{6} [1 2 4 5 6 7 8 9 10 11]{4} [1 2 4 5 6 7 8 9 10 11] [1 2 4 5 6 7 8 9 10 11]{4} 3{6} [1 2 4 5 6 7 8 9 10 11]{5} [1 2 4 5 6 7 8 9 10 11] [1 2 4 5 6 7 8 9 10 11]{4} 3{6} [1 2 4 5 6 7 8 9 10 11]{5} [1 2 4 5 6 7 8 9 10 11] [1 2 4 5 6 7 8 9 10 11]{2} 3{7} [1 2 4 5 6 7 8 9 10 11]{6} [1 2 4 5 6 7 8 9 10 11] 3{8} [1 2 4 5 6 7 8 9 10 11]{7} [1 2 4 5 6 7 8 9 10 11] 3{9} [1 2 4 5 6 7 8 9 10 11]{6} [1 2 4 5 6 7 8 9 10 11] [1 2 4 5 6 7 8 9 10 11]{1} 3{9} [1 2 4 5 6 7 8 9 10 11]{5} [1 2 4 5 6 7 8 9 10 11] [1 2 4 5 6 7 8 9 10 11]{2} 3{8} [1 2 4 5 6 7 8 9 10 11]{5} [1 2 4 5 6 7 8 9 10 11] [1 2 4 5 6 7 8 9 10 11]{3} 3{5} [1 2 4 5 6 7 8 9 10 11]{7} [1 2 4 5 6 7 8 9 10 11] [1 2 4 5 6 7 8 9 10 11]{3} 3{5} [1 2 4 5 6 7 8 9 10 11]{7} [1 2 4 5 6 7 8 9 10 11] [1 2 4 5 6 7 8 9 10 11]{3} 3{5}  [1 2 4 5 6 7 8 9 10 11]*) | ([1 2 4 5 6 7 8 9 10 11]* 3{2} [1 2 4 5 6 7 8 9 10 11]{5} [1 2 4 5 6 7 8 9 10 11] [1 2 4 5 6 7 8 9 10 11]{8} 3{3} [1 2 4 5 6 7 8 9 10 11]{4} [1 2 4 5 6 7 8 9 10 11] [1 2 4 5 6 7 8 9 10 11]{7} 3{5} [1 2 4 5 6 7 8 9 10 11]{3} [1 2 4 5 6 7 8 9 10 11] [1 2 4 5 6 7 8 9 10 11]{7} 3{8} [1 2 4 5 6 7 8 9 10 11] [1 2 4 5 6 7 8 9 10 11]{5} 3{10} [1 2 4 5 6 7 8 9 10 11] [1 2 4 5 6 7 8 9 10 11]{3} 3{12} [1 2 4 5 6 7 8 9 10 11] [1 2 4 5 6 7 8 9 10 11]{3} 3{12} [1 2 4 5 6 7 8 9 10 11] [1 2 4 5 6 7 8 9 10 11]{4} 3{11} [1 2 4 5 6 7 8 9 10 11] [1 2 4 5 6 7 8 9 10 11]{4} 3{4} [1 2 4 5 6 7 8 9 10 11]{1} 3{3} [1 2 4 5 6 7 8 9 10 11]{3} [1 2 4 5 6 7 8 9 10 11] [1 2 4 5 6 7 8 9 10 11]{4} 3{3} [1 2 4 5 6 7 8 9 10 11]{3} 3{2} [1 2 4 5 6 7 8 9 10 11]{3} [1 2 4 5 6 7 8 9 10 11] [1 2 4 5 6 7 8 9 10 11]{4} 3{1}  [1 2 4 5 6 7 8 9 10 11]*) | ([1 2 4 5 6 7 8 9 10 11]* 3{5} [1 2 4 5 6 7 8 9 10 11]{7} [1 2 4 5 6 7 8 9 10 11] [1 2 4 5 6 7 8 9 10 11]{3} 3{5} [1 2 4 5 6 7 8 9 10 11]{7} [1 2 4 5 6 7 8 9 10 11] [1 2 4 5 6 7 8 9 10 11]{3} 3{5} [1 2 4 5 6 7 8 9 10 11]{7} [1 2 4 5 6 7 8 9 10 11] [1 2 4 5 6 7 8 9 10 11]{2} 3{8} [1 2 4 5 6 7 8 9 10 11]{5} [1 2 4 5 6 7 8 9 10 11] [1 2 4 5 6 7 8 9 10 11]{1} 3{9} [1 2 4 5 6 7 8 9 10 11]{5} [1 2 4 5 6 7 8 9 10 11] 3{9} [1 2 4 5 6 7 8 9 10 11]{6} [1 2 4 5 6 7 8 9 10 11] 3{8} [1 2 4 5 6 7 8 9 10 11]{7} [1 2 4 5 6 7 8 9 10 11] [1 2 4 5 6 7 8 9 10 11]{2} 3{7} [1 2 4 5 6 7 8 9 10 11]{6} [1 2 4 5 6 7 8 9 10 11] [1 2 4 5 6 7 8 9 10 11]{4} 3{6} [1 2 4 5 6 7 8 9 10 11]{5} [1 2 4 5 6 7 8 9 10 11] [1 2 4 5 6 7 8 9 10 11]{4} 3{6} [1 2 4 5 6 7 8 9 10 11]{5} [1 2 4 5 6 7 8 9 10 11] [1 2 4 5 6 7 8 9 10 11]{5} 3{6} [1 2 4 5 6 7 8 9 10 11]{4} [1 2 4 5 6 7 8 9 10 11] [1 2 4 5 6 7 8 9 10 11]{5} 3{2}  [1 2 4 5 6 7 8 9 10 11]*) | ([1 2 4 5 6 7 8 9 10 11]* 3{1} [1 2 4 5 6 7 8 9 10 11]{4} [1 2 4 5 6 7 8 9 10 11] [1 2 4 5 6 7 8 9 10 11]{3} 3{2} [1 2 4 5 6 7 8 9 10 11]{3} 3{3} [1 2 4 5 6 7 8 9 10 11]{4} [1 2 4 5 6 7 8 9 10 11] [1 2 4 5 6 7 8 9 10 11]{3} 3{3} [1 2 4 5 6 7 8 9 10 11]{1} 3{4} [1 2 4 5 6 7 8 9 10 11]{4} [1 2 4 5 6 7 8 9 10 11] 3{11} [1 2 4 5 6 7 8 9 10 11]{4} [1 2 4 5 6 7 8 9 10 11] 3{12} [1 2 4 5 6 7 8 9 10 11]{3} [1 2 4 5 6 7 8 9 10 11] 3{12} [1 2 4 5 6 7 8 9 10 11]{3} [1 2 4 5 6 7 8 9 10 11] 3{10} [1 2 4 5 6 7 8 9 10 11]{5} [1 2 4 5 6 7 8 9 10 11] 3{8} [1 2 4 5 6 7 8 9 10 11]{7} [1 2 4 5 6 7 8 9 10 11] [1 2 4 5 6 7 8 9 10 11]{3} 3{5} [1 2 4 5 6 7 8 9 10 11]{7} [1 2 4 5 6 7 8 9 10 11] [1 2 4 5 6 7 8 9 10 11]{4} 3{3} [1 2 4 5 6 7 8 9 10 11]{8} [1 2 4 5 6 7 8 9 10 11] [1 2 4 5 6 7 8 9 10 11]{5} 3{2}  [1 2 4 5 6 7 8 9 10 11]*) | ([1 2 4 5 6 7 8 9 10 11]* 3{2} [1 2 4 5 6 7 8 9 10 11]{5} [1 2 4 5 6 7 8 9 10 11] [1 2 4 5 6 7 8 9 10 11]{4} 3{6} [1 2 4 5 6 7 8 9 10 11]{5} [1 2 4 5 6 7 8 9 10 11] [1 2 4 5 6 7 8 9 10 11]{5} 3{6} [1 2 4 5 6 7 8 9 10 11]{4} [1 2 4 5 6 7 8 9 10 11] [1 2 4 5 6 7 8 9 10 11]{5} 3{6} [1 2 4 5 6 7 8 9 10 11]{4} [1 2 4 5 6 7 8 9 10 11] [1 2 4 5 6 7 8 9 10 11]{6} 3{7} [1 2 4 5 6 7 8 9 10 11]{2} [1 2 4 5 6 7 8 9 10 11] [1 2 4 5 6 7 8 9 10 11]{7} 3{8} [1 2 4 5 6 7 8 9 10 11] [1 2 4 5 6 7 8 9 10 11]{6} 3{9} [1 2 4 5 6 7 8 9 10 11] [1 2 4 5 6 7 8 9 10 11]{5} 3{9} [1 2 4 5 6 7 8 9 10 11]{1} [1 2 4 5 6 7 8 9 10 11] [1 2 4 5 6 7 8 9 10 11]{5} 3{8} [1 2 4 5 6 7 8 9 10 11]{2} [1 2 4 5 6 7 8 9 10 11] [1 2 4 5 6 7 8 9 10 11]{7} 3{5} [1 2 4 5 6 7 8 9 10 11]{3} [1 2 4 5 6 7 8 9 10 11] [1 2 4 5 6 7 8 9 10 11]{7} 3{5} [1 2 4 5 6 7 8 9 10 11]{3} [1 2 4 5 6 7 8 9 10 11] [1 2 4 5 6 7 8 9 10 11]{7} 3{5}  [1 2 4 5 6 7 8 9 10 11]*) )",
    "( ([1 2 3 5 6 7 8 9 10 11]* 4{1} [1 2 3 5 6 7 8 9 10 11]{8} [1 2 3 5 6 7 8 9 10 11] [1 2 3 5 6 7 8 9 10 11]{5} 4{3} [1 2 3 5 6 7 8 9 10 11]{7} [1 2 3 5 6 7 8 9 10 11] [1 2 3 5 6 7 8 9 10 11]{4} 4{6} [1 2 3 5 6 7 8 9 10 11]{5} [1 2 3 5 6 7 8 9 10 11] [1 2 3 5 6 7 8 9 10 11]{5} 4{2} [1 2 3 5 6 7 8 9 10 11]{2} 4{3} [1 2 3 5 6 7 8 9 10 11]{3} [1 2 3 5 6 7 8 9 10 11] [1 2 3 5 6 7 8 9 10 11]{9} 4{3}  [1 2 3 5 6 7 8 9 10 11]*) | ([1 2 3 5 6 7 8 9 10 11]* 4{1} [1 2 3 5 6 7 8 9 10 11]{10} [1 2 3 5 6 7 8 9 10 11] [1 2 3 5 6 7 8 9 10 11]{3} 4{3} [1 2 3 5 6 7 8 9 10 11]{9} [1 2 3 5 6 7 8 9 10 11] [1 2 3 5 6 7 8 9 10 11]{3} 4{4} [1 2 3 5 6 7 8 9 10 11]{8} [1 2 3 5 6 7 8 9 10 11] [1 2 3 5 6 7 8 9 10 11]{4} 4{2} [1 2 3 5 6 7 8 9 10 11]{9} [1 2 3 5 6 7 8 9 10 11] [1 2 3 5 6 7 8 9 10 11]{4} 4{1} [1 2 3 5 6 7 8 9 10 11]{10} [1 2 3 5 6 7 8 9 10 11] [1 2 3 5 6 7 8 9 10 11]{2} 4{3} [1 2 3 5 6 7 8 9 10 11]{10} [1 2 3 5 6 7 8 9 10 11] [1 2 3 5 6 7 8 9 10 11]{2} 4{2} [1 2 3 5 6 7 8 9 10 11]{11} [1 2 3 5 6 7 8 9 10 11] [1 2 3 5 6 7 8 9 10 11]{2} 4{2}  [1 2 3 5 6 7 8 9 10 11]*) | ([1 2 3 5 6 7 8 9 10 11]* 4{3} [1 2 3 5 6 7 8 9 10 11]{9} [1 2 3 5 6 7 8 9 10 11] [1 2 3 5 6 7 8 9 10 11]{3} 4{3} [1 2 3 5 6 7 8 9 10 11]{2} 4{2} [1 2 3 5 6 7 8 9 10 11]{5} [1 2 3 5 6 7 8 9 10 11] [1 2 3 5 6 7 8 9 10 11]{5} 4{6} [1 2 3 5 6 7 8 9 10 11]{4} [1 2 3 5 6 7 8 9 10 11] [1 2 3 5 6 7 8 9 10 11]{7} 4{3} [1 2 3 5 6 7 8 9 10 11]{5} [1 2 3 5 6 7 8 9 10 11] [1 2 3 5 6 7 8 9 10 11]{8} 4{1}  [1 2 3 5 6 7 8 9 10 11]*) | ([1 2 3 5 6 7 8 9 10 11]* 4{2} [1 2 3 5 6 7 8 9 10 11]{2} [1 2 3 5 6 7 8 9 10 11] [1 2 3 5 6 7 8 9 10 11]{11} 4{2} [1 2 3 5 6 7 8 9 10 11]{2} [1 2 3 5 6 7 8 9 10 11] [1 2 3 5 6 7 8 9 10 11]{10} 4{3} [1 2 3 5 6 7 8 9 10 11]{2} [1 2 3 5 6 7 8 9 10 11] [1 2 3 5 6 7 8 9 10 11]{10} 4{1} [1 2 3 5 6 7 8 9 10 11]{4} [1 2 3 5 6 7 8 9 10 11] [1 2 3 5 6 7 8 9 10 11]{9} 4{2} [1 2 3 5 6 7 8 9 10 11]{4} [1 2 3 5 6 7 8 9 10 11] [1 2 3 5 6 7 8 9 10 11]{8} 4{4} [1 2 3 5 6 7 8 9 10 11]{3} [1 2 3 5 6 7 8 9 10 11] [1 2 3 5 6 7 8 9 10 11]{9} 4{3} [1 2 3 5 6 7 8 9 10 11]{3} [1 2 3 5 6 7 8 9 10 11] [1 2 3 5 6 7 8 9 10 11]{10} 4{1}  [1 2 3 5 6 7 8 9 10 11]*) | ([1 2 3 5 6 7 8 9 10 11]* 4{1} [1 2 3 5 6 7 8 9 10 11]{6} [1 2 3 5 6 7 8 9 10 11] [1 2 3 5 6 7 8 9 10 11]{7} 4{3} [1 2 3 5 6 7 8 9 10 11]{5} [1 2 3 5 6 7 8 9 10 11] [1 2 3 5 6 7 8 9 10 11]{5} 4{6} [1 2 3 5 6 7 8 9 10 11]{4} [1 2 3 5 6 7 8 9 10 11] [1 2 3 5 6 7 8 9 10 11]{3} 4{3} [1 2 3 5 6 7 8 9 10 11]{2} 4{2} [1 2 3 5 6 7 8 9 10 11]{5} [1 2 3 5 6 7 8 9 10 11] [1 2 3 5 6 7 8 9 10 11]{3} 4{3}  [1 2 3 5 6 7 8 9 10 11]*) | ([1 2 3 5 6 7 8 9 10 11]* 4{1} [1 2 3 5 6 7 8 9 10 11]{4} [1 2 3 5 6 7 8 9 10 11] [1 2 3 5 6 7 8 9 10 11]{9} 4{3} [1 2 3 5 6 7 8 9 10 11]{3} [1 2 3 5 6 7 8 9 10 11] [1 2 3 5 6 7 8 9 10 11]{8} 4{4} [1 2 3 5 6 7 8 9 10 11]{3} [1 2 3 5 6 7 8 9 10 11] [1 2 3 5 6 7 8 9 10 11]{9} 4{2} [1 2 3 5 6 7 8 9 10 11]{4} [1 2 3 5 6 7 8 9 10 11] [1 2 3 5 6 7 8 9 10 11]{10} 4{1} [1 2 3 5 6 7 8 9 10 11]{4} [1 2 3 5 6 7 8 9 10 11] [1 2 3 5 6 7 8 9 10 11]{10} 4{3} [1 2 3 5 6 7 8 9 10 11]{2} [1 2 3 5 6 7 8 9 10 11] [1 2 3 5 6 7 8 9 10 11]{11} 4{2} [1 2 3 5 6 7 8 9 10 11]{2} [1 2 3 5 6 7 8 9 10 11] [1 2 3 5 6 7 8 9 10 11]{11} 4{2}  [1 2 3 5 6 7 8 9 10 11]*) | ([1 2 3 5 6 7 8 9 10 11]* 4{3} [1 2 3 5 6 7 8 9 10 11]{3} [1 2 3 5 6 7 8 9 10 11] [1 2 3 5 6 7 8 9 10 11]{5} 4{2} [1 2 3 5 6 7 8 9 10 11]{2} 4{3} [1 2 3 5 6 7 8 9 10 11]{3} [1 2 3 5 6 7 8 9 10 11] [1 2 3 5 6 7 8 9 10 11]{4} 4{6} [1 2 3 5 6 7 8 9 10 11]{5} [1 2 3 5 6 7 8 9 10 11] [1 2 3 5 6 7 8 9 10 11]{5} 4{3} [1 2 3 5 6 7 8 9 10 11]{7} [1 2 3 5 6 7 8 9 10 11] [1 2 3 5 6 7 8 9 10 11]{6} 4{1}  [1 2 3 5 6 7 8 9 10 11]*) | ([1 2 3 5 6 7 8 9 10 11]* 4{2} [1 2 3 5 6 7 8 9 10 11]{11} [1 2 3 5 6 7 8 9 10 11] [1 2 3 5 6 7 8 9 10 11]{2} 4{2} [1 2 3 5 6 7 8 9 10 11]{11} [1 2 3 5 6 7 8 9 10 11] [1 2 3 5 6 7 8 9 10 11]{2} 4{3} [1 2 3 5 6 7 8 9 10 11]{10} [1 2 3 5 6 7 8 9 10 11] [1 2 3 5 6 7 8 9 10 11]{4} 4{1} [1 2 3 5 6 7 8 9 10 11]{10} [1 2 3 5 6 7 8 9 10 11] [1 2 3 5 6 7 8 9 10 11]{4} 4{2} [1 2 3 5 6 7 8 9 10 11]{9} [1 2 3 5 6 7 8 9 10 11] [1 2 3 5 6 7 8 9 10 11]{3} 4{4} [1 2 3 5 6 7 8 9 10 11]{8} [1 2 3 5 6 7 8 9 10 11] [1 2 3 5 6 7 8 9 10 11]{3} 4{3} [1 2 3 5 6 7 8 9 10 11]{9} [1 2 3 5 6 7 8 9 10 11] [1 2 3 5 6 7 8 9 10 11]{4} 4{1}  [1 2 3 5 6 7 8 9 10 11]*) )",
    "( ([1 2 3 4 6 7 8 9 10 11]* 5{2} [1 2 3 4 6 7 8 9 10 11]{6} [1 2 3 4 6 7 8 9 10 11] [1 2 3 4 6 7 8 9 10 11]{4} 5{5} [1 2 3 4 6 7 8 9 10 11]{6} [1 2 3 4 6 7 8 9 10 11] [1 2 3 4 6 7 8 9 10 11]{5} 5{8} [1 2 3 4 6 7 8 9 10 11]{2} [1 2 3 4 6 7 8 9 10 11] [1 2 3 4 6 7 8 9 10 11]{4} 5{8}  [1 2 3 4 6 7 8 9 10 11]*) | ([1 2 3 4 6 7 8 9 10 11]* 5{1} [1 2 3 4 6 7 8 9 10 11]{1} 5{1} [1 2 3 4 6 7 8 9 10 11]{12} [1 2 3 4 6 7 8 9 10 11] 5{3} [1 2 3 4 6 7 8 9 10 11]{12} [1 2 3 4 6 7 8 9 10 11] 5{3} [1 2 3 4 6 7 8 9 10 11]{12} [1 2 3 4 6 7 8 9 10 11] 5{4} [1 2 3 4 6 7 8 9 10 11]{11} [1 2 3 4 6 7 8 9 10 11] 5{4} [1 2 3 4 6 7 8 9 10 11]{11} [1 2 3 4 6 7 8 9 10 11] 5{2} [1 2 3 4 6 7 8 9 10 11]{13} [1 2 3 4 6 7 8 9 10 11] 5{2} [1 2 3 4 6 7 8 9 10 11]{13} [1 2 3 4 6 7 8 9 10 11] 5{2} [1 2 3 4 6 7 8 9 10 11]{13} [1 2 3 4 6 7 8 9 10 11] [1 2 3 4 6 7 8 9 10 11]{1} 5{1}  [1 2 3 4 6 7 8 9 10 11]*) | ([1 2 3 4 6 7 8 9 10 11]* 5{8} [1 2 3 4 6 7 8 9 10 11]{4} [1 2 3 4 6 7 8 9 10 11] [1 2 3 4 6 7 8 9 10 11]{2} 5{8} [1 2 3 4 6 7 8 9 10 11]{5} [1 2 3 4 6 7 8 9 10 11] [1 2 3 4 6 7 8 9 10 11]{6} 5{5} [1 2 3 4 6 7 8 9 10 11]{4} [1 2 3 4 6 7 8 9 10 11] [1 2 3 4 6 7 8 9 10 11]{6} 5{2}  [1 2 3 4 6 7 8 9 10 11]*) | ([1 2 3 4 6 7 8 9 10 11]* 5{1} [1 2 3 4 6 7 8 9 10 11]{1} [1 2 3 4 6 7 8 9 10 11] [1 2 3 4 6 7 8 9 10 11]{13} 5{2} [1 2 3 4 6 7 8 9 10 11] [1 2 3 4 6 7 8 9 10 11]{13} 5{2} [1 2 3 4 6 7 8 9 10 11] [1 2 3 4 6 7 8 9 10 11]{13} 5{2} [1 2 3 4 6 7 8 9 10 11] [1 2 3 4 6 7 8 9 10 11]{11} 5{4} [1 2 3 4 6 7 8 9 10 11] [1 2 3 4 6 7 8 9 10 11]{11} 5{4} [1 2 3 4 6 7 8 9 10 11] [1 2 3 4 6 7 8 9 10 11]{12} 5{3} [1 2 3 4 6 7 8 9 10 11] [1 2 3 4 6 7 8 9 10 11]{12} 5{3} [1 2 3 4 6 7 8 9 10 11] [1 2 3 4 6 7 8 9 10 11]{12} 5{1} [1 2 3 4 6 7 8 9 10 11]{1} 5{1}  [1 2 3 4 6 7 8 9 10 11]*) | ([1 2 3 4 6 7 8 9 10 11]* 5{2} [1 2 3 4 6 7 8 9 10 11]{7} [1 2 3 4 6 7 8 9 10 11] [1 2 3 4 6 7 8 9 10 11]{6} 5{5} [1 2 3 4 6 7 8 9 10 11]{4} [1 2 3 4 6 7 8 9 10 11] [1 2 3 4 6 7 8 9 10 11]{2} 5{8} [1 2 3 4 6 7 8 9 10 11]{5} [1 2 3 4 6 7 8 9 10 11] [1 2 3 4 6 7 8 9 10 11]{3} 5{8}  [1 2 3 4 6 7 8 9 10 11]*) | ([1 2 3 4 6 7 8 9 10 11]* 5{1} [1 2 3 4 6 7 8 9 10 11]{1} 5{1} [1 2 3 4 6 7 8 9 10 11] [1 2 3 4 6 7 8 9 10 11]{12} 5{3} [1 2 3 4 6 7 8 9 10 11] [1 2 3 4 6 7 8 9 10 11]{12} 5{3} [1 2 3 4 6 7 8 9 10 11] [1 2 3 4 6 7 8 9 10 11]{11} 5{4} [1 2 3 4 6 7 8 9 10 11] [1 2 3 4 6 7 8 9 10 11]{11} 5{4} [1 2 3 4 6 7 8 9 10 11] [1 2 3 4 6 7 8 9 10 11]{13} 5{2} [1 2 3 4 6 7 8 9 10 11] [1 2 3 4 6 7 8 9 10 11]{13} 5{2} [1 2 3 4 6 7 8 9 10 11] [1 2 3 4 6 7 8 9 10 11]{13} 5{2} [1 2 3 4 6 7 8 9 10 11] [1 2 3 4 6 7 8 9 10 11]{13} 5{1}  [1 2 3 4 6 7 8 9 10 11]*) | ([1 2 3 4 6 7 8 9 10 11]* 5{8} [1 2 3 4 6 7 8 9 10 11]{3} [1 2 3 4 6 7 8 9 10 11] [1 2 3 4 6 7 8 9 10 11]{5} 5{8} [1 2 3 4 6 7 8 9 10 11]{2} [1 2 3 4 6 7 8 9 10 11] [1 2 3 4 6 7 8 9 10 11]{4} 5{5} [1 2 3 4 6 7 8 9 10 11]{6} [1 2 3 4 6 7 8 9 10 11] [1 2 3 4 6 7 8 9 10 11]{7} 5{2}  [1 2 3 4 6 7 8 9 10 11]*) | ([1 2 3 4 6 7 8 9 10 11]* 5{1} [1 2 3 4 6 7 8 9 10 11]{13} [1 2 3 4 6 7 8 9 10 11] 5{2} [1 2 3 4 6 7 8 9 10 11]{13} [1 2 3 4 6 7 8 9 10 11] 5{2} [1 2 3 4 6 7 8 9 10 11]{13} [1 2 3 4 6 7 8 9 10 11] 5{2} [1 2 3 4 6 7 8 9 10 11]{13} [1 2 3 4 6 7 8 9 10 11] 5{4} [1 2 3 4 6 7 8 9 10 11]{11} [1 2 3 4 6 7 8 9 10 11] 5{4} [1 2 3 4 6 7 8 9 10 11]{11} [1 2 3 4 6 7 8 9 10 11] 5{3} [1 2 3 4 6 7 8 9 10 11]{12} [1 2 3 4 6 7 8 9 10 11] 5{3} [1 2 3 4 6 7 8 9 10 11]{12} [1 2 3 4 6 7 8 9 10 11] 5{1} [1 2 3 4 6 7 8 9 10 11]{1} 5{1}  [1 2 3 4 6 7 8 9 10 11]*) )",
    "( ([1 2 3 4 5 7 8 9 10 11]* 6{5} [1 2 3 4 5 7 8 9 10 11]{10} [1 2 3 4 5 7 8 9 10 11] [1 2 3 4 5 7 8 9 10 11]{2} 6{2} [1 2 3 4 5 7 8 9 10 11]{11} [1 2 3 4 5 7 8 9 10 11] [1 2 3 4 5 7 8 9 10 11]{2} 6{1}  [1 2 3 4 5 7 8 9 10 11]*) | ([1 2 3 4 5 7 8 9 10 11]* 6{1} [1 2 3 4 5 7 8 9 10 11] [1 2 3 4 5 7 8 9 10 11]{14} 6{1} [1 2 3 4 5 7 8 9 10 11] [1 2 3 4 5 7 8 9 10 11]{12} 6{3} [1 2 3 4 5 7 8 9 10 11] [1 2 3 4 5 7 8 9 10 11]{13} 6{2} [1 2 3 4 5 7 8 9 10 11] [1 2 3 4 5 7 8 9 10 11]{14} 6{1}  [1 2 3 4 5 7 8 9 10 11]*) | ([1 2 3 4 5 7 8 9 10 11]* 6{1} [1 2 3 4 5 7 8 9 10 11]{2} [1 2 3 4 5 7 8 9 10 11] [1 2 3 4 5 7 8 9 10 11]{11} 6{2} [1 2 3 4 5 7 8 9 10 11]{2} [1 2 3 4 5 7 8 9 10 11] [1 2 3 4 5 7 8 9 10 11]{10} 6{5}  [1 2 3 4 5 7 8 9 10 11]*) | ([1 2 3 4 5 7 8 9 10 11]* 6{1} [1 2 3 4 5 7 8 9 10 11]{14} [1 2 3 4 5 7 8 9 10 11] 6{2} [1 2 3 4 5 7 8 9 10 11]{13} [1 2 3 4 5 7 8 9 10 11] 6{3} [1 2 3 4 5 7 8 9 10 11]{12} [1 2 3 4 5 7 8 9 10 11] 6{1} [1 2 3 4 5 7 8 9 10 11]{14} [1 2 3 4 5 7 8 9 10 11] 6{1}  [1 2 3 4 5 7 8 9 10 11]*) | ([1 2 3 4 5 7 8 9 10 11]* 6{5} [1 2 3 4 5 7 8 9 10 11] [1 2 3 4 5 7 8 9 10 11]{11} 6{2} [1 2 3 4 5 7 8 9 10 11]{2} [1 2 3 4 5 7 8 9 10 11] [1 2 3 4 5 7 8 9 10 11]{12} 6{1}  [1 2 3 4 5 7 8 9 10 11]*) | ([1 2 3 4 5 7 8 9 10 11]* 6{1} [1 2 3 4 5 7 8 9 10 11]{14} [1 2 3 4 5 7 8 9 10 11] 6{1} [1 2 3 4 5 7 8 9 10 11]{14} [1 2 3 4 5 7 8 9 10 11] 6{3} [1 2 3 4 5 7 8 9 10 11]{12} [1 2 3 4 5 7 8 9 10 11] 6{2} [1 2 3 4 5 7 8 9 10 11]{13} [1 2 3 4 5 7 8 9 10 11] 6{1}  [1 2 3 4 5 7 8 9 10 11]*) | ([1 2 3 4 5 7 8 9 10 11]* 6{1} [1 2 3 4 5 7 8 9 10 11]{12} [1 2 3 4 5 7 8 9 10 11] [1 2 3 4 5 7 8 9 10 11]{2} 6{2} [1 2 3 4 5 7 8 9 10 11]{11} [1 2 3 4 5 7 8 9 10 11] 6{5}  [1 2 3 4 5 7 8 9 10 11]*) | ([1 2 3 4 5 7 8 9 10 11]* 6{1} [1 2 3 4 5 7 8 9 10 11] [1 2 3 4 5 7 8 9 10 11]{13} 6{2} [1 2 3 4 5 7 8 9 10 11] [1 2 3 4 5 7 8 9 10 11]{12} 6{3} [1 2 3 4 5 7 8 9 10 11] [1 2 3 4 5 7 8 9 10 11]{14} 6{1} [1 2 3 4 5 7 8 9 10 11] [1 2 3 4 5 7 8 9 10 11]{14} 6{1}  [1 2 3 4 5 7 8 9 10 11]*) )",
    "( ([1 2 3 4 5 6 8 9 10 11]* 7{2} [1 2 3 4 5 6 8 9 10 11]{13} [1 2 3 4 5 6 8 9 10 11] 7{2}  [1 2 3 4 5 6 8 9 10 11]*) | ([1 2 3 4 5 6 8 9 10 11]* 7{2} [1 2 3 4 5 6 8 9 10 11]{1} [1 2 3 4 5 6 8 9 10 11] [1 2 3 4 5 6 8 9 10 11]{12} 7{2}  [1 2 3 4 5 6 8 9 10 11]*) | ([1 2 3 4 5 6 8 9 10 11]* 7{2} [1 2 3 4 5 6 8 9 10 11] [1 2 3 4 5 6 8 9 10 11]{13} 7{2}  [1 2 3 4 5 6 8 9 10 11]*) | ([1 2 3 4 5 6 8 9 10 11]* 7{2} [1 2 3 4 5 6 8 9 10 11]{12} [1 2 3 4 5 6 8 9 10 11] [1 2 3 4 5 6 8 9 10 11]{1} 7{2}  [1 2 3 4 5 6 8 9 10 11]*) | ([1 2 3 4 5 6 8 9 10 11]* 7{2} [1 2 3 4 5 6 8 9 10 11] [1 2 3 4 5 6 8 9 10 11]{13} 7{2}  [1 2 3 4 5 6 8 9 10 11]*) | ([1 2 3 4 5 6 8 9 10 11]* 7{2} [1 2 3 4 5 6 8 9 10 11]{12} [1 2 3 4 5 6 8 9 10 11] [1 2 3 4 5 6 8 9 10 11]{1} 7{2}  [1 2 3 4 5 6 8 9 10 11]*) | ([1 2 3 4 5 6 8 9 10 11]* 7{2} [1 2 3 4 5 6 8 9 10 11]{13} [1 2 3 4 5 6 8 9 10 11] 7{2}  [1 2 3 4 5 6 8 9 10 11]*) | ([1 2 3 4 5 6 8 9 10 11]* 7{2} [1 2 3 4 5 6 8 9 10 11]{1} [1 2 3 4 5 6 8 9 10 11] [1 2 3 4 5 6 8 9 10 11]{12} 7{2}  [1 2 3 4 5 6 8 9 10 11]*) )",
    "( ([1 2 3 4 5 6 7 9 10 11]* 8{2} [1 2 3 4 5 6 7 9 10 11] [1 2 3 4 5 6 7 9 10 11]{7} 8{8} [1 2 3 4 5 6 7 9 10 11] [1 2 3 4 5 6 7 9 10 11]{8} 8{6} [1 2 3 4 5 6 7 9 10 11]{1} [1 2 3 4 5 6 7 9 10 11] [1 2 3 4 5 6 7 9 10 11]{8} 8{5} [1 2 3 4 5 6 7 9 10 11]{2} [1 2 3 4 5 6 7 9 10 11] [1 2 3 4 5 6 7 9 10 11]{10} 8{3} [1 2 3 4 5 6 7 9 10 11]{2} [1 2 3 4 5 6 7 9 10 11] [1 2 3 4 5 6 7 9 10 11]{12} 8{1}  [1 2 3 4 5 6 7 9 10 11]*) | ([1 2 3 4 5 6 7 9 10 11]* 8{1} [1 2 3 4 5 6 7 9 10 11]{1} [1 2 3 4 5 6 7 9 10 11] [1 2 3 4 5 6 7 9 10 11]{11} 8{3} [1 2 3 4 5 6 7 9 10 11]{1} [1 2 3 4 5 6 7 9 10 11] [1 2 3 4 5 6 7 9 10 11]{11} 8{3} [1 2 3 4 5 6 7 9 10 11]{1} [1 2 3 4 5 6 7 9 10 11] [1 2 3 4 5 6 7 9 10 11]{10} 8{4} [1 2 3 4 5 6 7 9 10 11]{1} [1 2 3 4 5 6 7 9 10 11] [1 2 3 4 5 6 7 9 10 11]{10} 8{4} [1 2 3 4 5 6 7 9 10 11]{1} [1 2 3 4 5 6 7 9 10 11] [1 2 3 4 5 6 7 9 10 11]{9} 8{5} [1 2 3 4 5 6 7 9 10 11]{1} [1 2 3 4 5 6 7 9 10 11] [1 2 3 4 5 6 7 9 10 11]{12} 8{3} [1 2 3 4 5 6 7 9 10 11] [1 2 3 4 5 6 7 9 10 11]{13} 8{2}  [1 2 3 4 5 6 7 9 10 11]*) | ([1 2 3 4 5 6 7 9 10 11]* 8{1} [1 2 3 4 5 6 7 9 10 11]{12} [1 2 3 4 5 6 7 9 10 11] [1 2 3 4 5 6 7 9 10 11]{2} 8{3} [1 2 3 4 5 6 7 9 10 11]{10} [1 2 3 4 5 6 7 9 10 11] [1 2 3 4 5 6 7 9 10 11]{2} 8{5} [1 2 3 4 5 6 7 9 10 11]{8} [1 2 3 4 5 6 7 9 10 11] [1 2 3 4 5 6 7 9 10 11]{1} 8{6} [1 2 3 4 5 6 7 9 10 11]{8} [1 2 3 4 5 6 7 9 10 11] 8{8} [1 2 3 4 5 6 7 9 10 11]{7} [1 2 3 4 5 6 7 9 10 11] 8{2}  [1 2 3 4 5 6 7 9 10 11]*) | ([1 2 3 4 5 6 7 9 10 11]* 8{2} [1 2 3 4 5 6 7 9 10 11]{13} [1 2 3 4 5 6 7 9 10 11] 8{3} [1 2 3 4 5 6 7 9 10 11]{12} [1 2 3 4 5 6 7 9 10 11] [1 2 3 4 5 6 7 9 10 11]{1} 8{5} [1 2 3 4 5 6 7 9 10 11]{9} [1 2 3 4 5 6 7 9 10 11] [1 2 3 4 5 6 7 9 10 11]{1} 8{4} [1 2 3 4 5 6 7 9 10 11]{10} [1 2 3 4 5 6 7 9 10 11] [1 2 3 4 5 6 7 9 10 11]{1} 8{4} [1 2 3 4 5 6 7 9 10 11]{10} [1 2 3 4 5 6 7 9 10 11] [1 2 3 4 5 6 7 9 10 11]{1} 8{3} [1 2 3 4 5 6 7 9 10 11]{11} [1 2 3 4 5 6 7 9 10 11] [1 2 3 4 5 6 7 9 10 11]{1} 8{3} [1 2 3 4 5 6 7 9 10 11]{11} [1 2 3 4 5 6 7 9 10 11] [1 2 3 4 5 6 7 9 10 11]{1} 8{1}  [1 2 3 4 5 6 7 9 10 11]*) | ([1 2 3 4 5 6 7 9 10 11]* 8{2} [1 2 3 4 5 6 7 9 10 11]{13} [1 2 3 4 5 6 7 9 10 11] 8{8} [1 2 3 4 5 6 7 9 10 11]{7} [1 2 3 4 5 6 7 9 10 11] [1 2 3 4 5 6 7 9 10 11]{1} 8{6} [1 2 3 4 5 6 7 9 10 11]{8} [1 2 3 4 5 6 7 9 10 11] [1 2 3 4 5 6 7 9 10 11]{2} 8{5} [1 2 3 4 5 6 7 9 10 11]{8} [1 2 3 4 5 6 7 9 10 11] [1 2 3 4 5 6 7 9 10 11]{2} 8{3} [1 2 3 4 5 6 7 9 10 11]{10} [1 2 3 4 5 6 7 9 10 11] [1 2 3 4 5 6 7 9 10 11]{2} 8{1}  [1 2 3 4 5 6 7 9 10 11]*) | ([1 2 3 4 5 6 7 9 10 11]* 8{1} [1 2 3 4 5 6 7 9 10 11]{13} [1 2 3 4 5 6 7 9 10 11] [1 2 3 4 5 6 7 9 10 11]{1} 8{3} [1 2 3 4 5 6 7 9 10 11]{11} [1 2 3 4 5 6 7 9 10 11] [1 2 3 4 5 6 7 9 10 11]{1} 8{3} [1 2 3 4 5 6 7 9 10 11]{11} [1 2 3 4 5 6 7 9 10 11] [1 2 3 4 5 6 7 9 10 11]{1} 8{4} [1 2 3 4 5 6 7 9 10 11]{10} [1 2 3 4 5 6 7 9 10 11] [1 2 3 4 5 6 7 9 10 11]{1} 8{4} [1 2 3 4 5 6 7 9 10 11]{10} [1 2 3 4 5 6 7 9 10 11] [1 2 3 4 5 6 7 9 10 11]{1} 8{5} [1 2 3 4 5 6 7 9 10 11]{9} [1 2 3 4 5 6 7 9 10 11] 8{3} [1 2 3 4 5 6 7 9 10 11]{12} [1 2 3 4 5 6 7 9 10 11] 8{2}  [1 2 3 4 5 6 7 9 10 11]*) | ([1 2 3 4 5 6 7 9 10 11]* 8{1} [1 2 3 4 5 6 7 9 10 11]{2} [1 2 3 4 5 6 7 9 10 11] [1 2 3 4 5 6 7 9 10 11]{10} 8{3} [1 2 3 4 5 6 7 9 10 11]{2} [1 2 3 4 5 6 7 9 10 11] [1 2 3 4 5 6 7 9 10 11]{8} 8{5} [1 2 3 4 5 6 7 9 10 11]{2} [1 2 3 4 5 6 7 9 10 11] [1 2 3 4 5 6 7 9 10 11]{8} 8{6} [1 2 3 4 5 6 7 9 10 11]{1} [1 2 3 4 5 6 7 9 10 11] [1 2 3 4 5 6 7 9 10 11]{7} 8{8} [1 2 3 4 5 6 7 9 10 11] [1 2 3 4 5 6 7 9 10 11]{13} 8{2}  [1 2 3 4 5 6 7 9 10 11]*) | ([1 2 3 4 5 6 7 9 10 11]* 8{2} [1 2 3 4 5 6 7 9 10 11] [1 2 3 4 5 6 7 9 10 11]{12} 8{3} [1 2 3 4 5 6 7 9 10 11] [1 2 3 4 5 6 7 9 10 11]{9} 8{5} [1 2 3 4 5 6 7 9 10 11]{1} [1 2 3 4 5 6 7 9 10 11] [1 2 3 4 5 6 7 9 10 11]{10} 8{4} [1 2 3 4 5 6 7 9 10 11]{1} [1 2 3 4 5 6 7 9 10 11] [1 2 3 4 5 6 7 9 10 11]{10} 8{4} [1 2 3 4 5 6 7 9 10 11]{1} [1 2 3 4 5 6 7 9 10 11] [1 2 3 4 5 6 7 9 10 11]{11} 8{3} [1 2 3 4 5 6 7 9 10 11]{1} [1 2 3 4 5 6 7 9 10 11] [1 2 3 4 5 6 7 9 10 11]{11} 8{3} [1 2 3 4 5 6 7 9 10 11]{1} [1 2 3 4 5 6 7 9 10 11] [1 2 3 4 5 6 7 9 10 11]{13} 8{1}  [1 2 3 4 5 6 7 9 10 11]*) )",
    "( ([1 2 3 4 5 6 7 8 10 11]* 9{6}  [1 2 3 4 5 6 7 8 10 11]*) | ([1 2 3 4 5 6 7 8 10 11]* 9{1} [1 2 3 4 5 6 7 8 10 11] [1 2 3 4 5 6 7 8 10 11]{14} 9{1} [1 2 3 4 5 6 7 8 10 11] [1 2 3 4 5 6 7 8 10 11]{14} 9{1} [1 2 3 4 5 6 7 8 10 11] [1 2 3 4 5 6 7 8 10 11]{14} 9{1} [1 2 3 4 5 6 7 8 10 11] [1 2 3 4 5 6 7 8 10 11]{14} 9{1} [1 2 3 4 5 6 7 8 10 11] [1 2 3 4 5 6 7 8 10 11]{14} 9{1}  [1 2 3 4 5 6 7 8 10 11]*) | ([1 2 3 4 5 6 7 8 10 11]* 9{6}  [1 2 3 4 5 6 7 8 10 11]*) | ([1 2 3 4 5 6 7 8 10 11]* 9{1} [1 2 3 4 5 6 7 8 10 11]{14} [1 2 3 4 5 6 7 8 10 11] 9{1} [1 2 3 4 5 6 7 8 10 11]{14} [1 2 3 4 5 6 7 8 10 11] 9{1} [1 2 3 4 5 6 7 8 10 11]{14} [1 2 3 4 5 6 7 8 10 11] 9{1} [1 2 3 4 5 6 7 8 10 11]{14} [1 2 3 4 5 6 7 8 10 11] 9{1} [1 2 3 4 5 6 7 8 10 11]{14} [1 2 3 4 5 6 7 8 10 11] 9{1}  [1 2 3 4 5 6 7 8 10 11]*) | ([1 2 3 4 5 6 7 8 10 11]* 9{6}  [1 2 3 4 5 6 7 8 10 11]*) | ([1 2 3 4 5 6 7 8 10 11]* 9{1} [1 2 3 4 5 6 7 8 10 11]{14} [1 2 3 4 5 6 7 8 10 11] 9{1} [1 2 3 4 5 6 7 8 10 11]{14} [1 2 3 4 5 6 7 8 10 11] 9{1} [1 2 3 4 5 6 7 8 10 11]{14} [1 2 3 4 5 6 7 8 10 11] 9{1} [1 2 3 4 5 6 7 8 10 11]{14} [1 2 3 4 5 6 7 8 10 11] 9{1} [1 2 3 4 5 6 7 8 10 11]{14} [1 2 3 4 5 6 7 8 10 11] 9{1}  [1 2 3 4 5 6 7 8 10 11]*) | ([1 2 3 4 5 6 7 8 10 11]* 9{6}  [1 2 3 4 5 6 7 8 10 11]*) | ([1 2 3 4 5 6 7 8 10 11]* 9{1} [1 2 3 4 5 6 7 8 10 11] [1 2 3 4 5 6 7 8 10 11]{14} 9{1} [1 2 3 4 5 6 7 8 10 11] [1 2 3 4 5 6 7 8 10 11]{14} 9{1} [1 2 3 4 5 6 7 8 10 11] [1 2 3 4 5 6 7 8 10 11]{14} 9{1} [1 2 3 4 5 6 7 8 10 11] [1 2 3 4 5 6 7 8 10 11]{14} 9{1} [1 2 3 4 5 6 7 8 10 11] [1 2 3 4 5 6 7 8 10 11]{14} 9{1}  [1 2 3 4 5 6 7 8 10 11]*) )",
    "( ([1 2 3 4 5 6 7 8 9 11]* 10{1} [1 2 3 4 5 6 7 8 9 11] [1 2 3 4 5 6 7 8 9 11]{13} 10{2} [1 2 3 4 5 6 7 8 9 11] [1 2 3 4 5 6 7 8 9 11]{13} 10{2} [1 2 3 4 5 6 7 8 9 11] [1 2 3 4 5 6 7 8 9 11]{13} 10{2} [1 2 3 4 5 6 7 8 9 11] [1 2 3 4 5 6 7 8 9 11]{12} 10{3} [1 2 3 4 5 6 7 8 9 11] [1 2 3 4 5 6 7 8 9 11]{11} 10{4} [1 2 3 4 5 6 7 8 9 11] [1 2 3 4 5 6 7 8 9 11]{11} 10{4} [1 2 3 4 5 6 7 8 9 11] [1 2 3 4 5 6 7 8 9 11]{11} 10{4} [1 2 3 4 5 6 7 8 9 11] [1 2 3 4 5 6 7 8 9 11]{11} 10{4} [1 2 3 4 5 6 7 8 9 11] [1 2 3 4 5 6 7 8 9 11]{12} 10{3} [1 2 3 4 5 6 7 8 9 11] [1 2 3 4 5 6 7 8 9 11]{12} 10{3} [1 2 3 4 5 6 7 8 9 11] [1 2 3 4 5 6 7 8 9 11]{13} 10{2} [1 2 3 4 5 6 7 8 9 11] [1 2 3 4 5 6 7 8 9 11]{12} 10{3}  [1 2 3 4 5 6 7 8 9 11]*) | ([1 2 3 4 5 6 7 8 9 11]* 10{4} [1 2 3 4 5 6 7 8 9 11]{7} [1 2 3 4 5 6 7 8 9 11] 10{1} [1 2 3 4 5 6 7 8 9 11]{1} 10{7} [1 2 3 4 5 6 7 8 9 11]{6} [1 2 3 4 5 6 7 8 9 11] 10{12} [1 2 3 4 5 6 7 8 9 11]{3} [1 2 3 4 5 6 7 8 9 11] 10{13}  [1 2 3 4 5 6 7 8 9 11]*) | ([1 2 3 4 5 6 7 8 9 11]* 10{3} [1 2 3 4 5 6 7 8 9 11]{12} [1 2 3 4 5 6 7 8 9 11] 10{2} [1 2 3 4 5 6 7 8 9 11]{13} [1 2 3 4 5 6 7 8 9 11] 10{3} [1 2 3 4 5 6 7 8 9 11]{12} [1 2 3 4 5 6 7 8 9 11] 10{3} [1 2 3 4 5 6 7 8 9 11]{12} [1 2 3 4 5 6 7 8 9 11] 10{4} [1 2 3 4 5 6 7 8 9 11]{11} [1 2 3 4 5 6 7 8 9 11] 10{4} [1 2 3 4 5 6 7 8 9 11]{11} [1 2 3 4 5 6 7 8 9 11] 10{4} [1 2 3 4 5 6 7 8 9 11]{11} [1 2 3 4 5 6 7 8 9 11] 10{4} [1 2 3 4 5 6 7 8 9 11]{11} [1 2 3 4 5 6 7 8 9 11] 10{3} [1 2 3 4 5 6 7 8 9 11]{12} [1 2 3 4 5 6 7 8 9 11] 10{2} [1 2 3 4 5 6 7 8 9 11]{13} [1 2 3 4 5 6 7 8 9 11] 10{2} [1 2 3 4 5 6 7 8 9 11]{13} [1 2 3 4 5 6 7 8 9 11] 10{2} [1 2 3 4 5 6 7 8 9 11]{13} [1 2 3 4 5 6 7 8 9 11] 10{1}  [1 2 3 4 5 6 7 8 9 11]*) | ([1 2 3 4 5 6 7 8 9 11]* 10{13} [1 2 3 4 5 6 7 8 9 11] [1 2 3 4 5 6 7 8 9 11]{3} 10{12} [1 2 3 4 5 6 7 8 9 11] [1 2 3 4 5 6 7 8 9 11]{6} 10{7} [1 2 3 4 5 6 7 8 9 11]{1} 10{1} [1 2 3 4 5 6 7 8 9 11] [1 2 3 4 5 6 7 8 9 11]{7} 10{4}  [1 2 3 4 5 6 7 8 9 11]*) | ([1 2 3 4 5 6 7 8 9 11]* 10{1} [1 2 3 4 5 6 7 8 9 11]{14} [1 2 3 4 5 6 7 8 9 11] 10{2} [1 2 3 4 5 6 7 8 9 11]{13} [1 2 3 4 5 6 7 8 9 11] 10{2} [1 2 3 4 5 6 7 8 9 11]{13} [1 2 3 4 5 6 7 8 9 11] 10{2} [1 2 3 4 5 6 7 8 9 11]{13} [1 2 3 4 5 6 7 8 9 11] 10{3} [1 2 3 4 5 6 7 8 9 11]{12} [1 2 3 4 5 6 7 8 9 11] 10{4} [1 2 3 4 5 6 7 8 9 11]{11} [1 2 3 4 5 6 7 8 9 11] 10{4} [1 2 3 4 5 6 7 8 9 11]{11} [1 2 3 4 5 6 7 8 9 11] 10{4} [1 2 3 4 5 6 7 8 9 11]{11} [1 2 3 4 5 6 7 8 9 11] 10{4} [1 2 3 4 5 6 7 8 9 11]{11} [1 2 3 4 5 6 7 8 9 11] 10{3} [1 2 3 4 5 6 7 8 9 11]{12} [1 2 3 4 5 6 7 8 9 11] 10{3} [1 2 3 4 5 6 7 8 9 11]{12} [1 2 3 4 5 6 7 8 9 11] 10{2} [1 2 3 4 5 6 7 8 9 11]{13} [1 2 3 4 5 6 7 8 9 11] 10{3}  [1 2 3 4 5 6 7 8 9 11]*) | ([1 2 3 4 5 6 7 8 9 11]* 10{4} [1 2 3 4 5 6 7 8 9 11]{4} [1 2 3 4 5 6 7 8 9 11] [1 2 3 4 5 6 7 8 9 11]{6} 10{7} [1 2 3 4 5 6 7 8 9 11]{1} 10{1} [1 2 3 4 5 6 7 8 9 11] [1 2 3 4 5 6 7 8 9 11]{3} 10{12} [1 2 3 4 5 6 7 8 9 11] [1 2 3 4 5 6 7 8 9 11]{2} 10{13}  [1 2 3 4 5 6 7 8 9 11]*) | ([1 2 3 4 5 6 7 8 9 11]* 10{3} [1 2 3 4 5 6 7 8 9 11] [1 2 3 4 5 6 7 8 9 11]{13} 10{2} [1 2 3 4 5 6 7 8 9 11] [1 2 3 4 5 6 7 8 9 11]{12} 10{3} [1 2 3 4 5 6 7 8 9 11] [1 2 3 4 5 6 7 8 9 11]{12} 10{3} [1 2 3 4 5 6 7 8 9 11] [1 2 3 4 5 6 7 8 9 11]{11} 10{4} [1 2 3 4 5 6 7 8 9 11] [1 2 3 4 5 6 7 8 9 11]{11} 10{4} [1 2 3 4 5 6 7 8 9 11] [1 2 3 4 5 6 7 8 9 11]{11} 10{4} [1 2 3 4 5 6 7 8 9 11] [1 2 3 4 5 6 7 8 9 11]{11} 10{4} [1 2 3 4 5 6 7 8 9 11] [1 2 3 4 5 6 7 8 9 11]{12} 10{3} [1 2 3 4 5 6 7 8 9 11] [1 2 3 4 5 6 7 8 9 11]{13} 10{2} [1 2 3 4 5 6 7 8 9 11] [1 2 3 4 5 6 7 8 9 11]{13} 10{2} [1 2 3 4 5 6 7 8 9 11] [1 2 3 4 5 6 7 8 9 11]{13} 10{2} [1 2 3 4 5 6 7 8 9 11] [1 2 3 4 5 6 7 8 9 11]{14} 10{1}  [1 2 3 4 5 6 7 8 9 11]*) | ([1 2 3 4 5 6 7 8 9 11]* 10{13} [1 2 3 4 5 6 7 8 9 11]{2} [1 2 3 4 5 6 7 8 9 11] 10{12} [1 2 3 4 5 6 7 8 9 11]{3} [1 2 3 4 5 6 7 8 9 11] 10{1} [1 2 3 4 5 6 7 8 9 11]{1} 10{7} [1 2 3 4 5 6 7 8 9 11]{6} [1 2 3 4 5 6 7 8 9 11] [1 2 3 4 5 6 7 8 9 11]{4} 10{4}  [1 2 3 4 5 6 7 8 9 11]*) )",
];
